% Auto-generated by scripts/generate_dzn.py
% problem_type   = regex
% instance       = regex_15
% source_json    = instances_json/1_medium_blowup/regex_15.json
% blowup         = 3.25
% representation = DFA

mode = 0;

var_count = 10;
Q = 26;
S = 2;
q0 = 1;
F = {17, 18, 19, 20, 21, 22, 23, 24, 25, 26};
d_dfa = array2d(1..26, 1..2, [
  1, 2,
  3, 2,
  1, 4,
  6, 5,
  8, 7,
  10, 9,
  12, 11,
  14, 13,
  16, 15,
  14, 11,
  18, 17,
  20, 19,
  22, 21,
  20, 17,
  24, 23,
  26, 25,
  3, 2,
  1, 4,
  6, 5,
  1, 2,
  8, 7,
  10, 9,
  12, 11,
  14, 13,
  16, 15,
  14, 11
]);
d_nfa = array2d(1..26, 1..2, [
  {}, {},
  {}, {},
  {}, {},
  {}, {},
  {}, {},
  {}, {},
  {}, {},
  {}, {},
  {}, {},
  {}, {},
  {}, {},
  {}, {},
  {}, {},
  {}, {},
  {}, {},
  {}, {},
  {}, {},
  {}, {},
  {}, {},
  {}, {},
  {}, {},
  {}, {},
  {}, {},
  {}, {},
  {}, {},
  {}, {}
]);
